problem_generation/data/GISP/train/er_n=63_m=1163_p=0.60_SET2_setparam=100.00_alpha=0.50_221.lp
maximize
OBJ:100x0 + 100x1 + 100x2 + 100x3 + 100x4 + 100x5 + 100x6 + 100x7 + 100x8 + 100x9 + 100x10 + 100x11 + 100x12 + 100x13 + 100x14 + 100x15 + 100x16 + 100x17 + 100x18 + 100x19 + 100x20 + 100x21 + 100x22 + 100x23 + 100x24 + 100x25 + 100x26 + 100x27 + 100x28 + 100x29 + 100x30 + 100x31 + 100x32 + 100x33 + 100x34 + 100x35 + 100x36 + 100x37 + 100x38 + 100x39 + 100x40 + 100x41 + 100x42 + 100x43 + 100x44 + 100x45 + 100x46 + 100x47 + 100x48 + 100x49 + 100x50 + 100x51 + 100x52 + 100x53 + 100x54 + 100x55 + 100x56 + 100x57 + 100x58 + 100x59 + 100x60 + 100x61 + 100x62 - y36_53 - y7_26 - y18_26 - y47_62 - y17_58 - y28_58 - y8_9 - y8_18 - y6_57 - y29_59 - y21_55 - y10_36 - y44_47 - y2_41 - y25_43 - y33_56 - y2_50 - y3_15 - y2_59 - y3_24 - y25_61 - y32_60 - y43_60 - y14_33 - y22_46 - y3_42 - y14_42 - y15_16 - y7_12 - y15_25 - y17_44 - y18_21 - y36_57 - y47_57 - y28_53 - y7_30 - y17_62 - y6_34 - y29_36 - y48_49 - y21_41 - y29_54 - y6_61 - y2_27 - y25_29 - y33_42 - y25_38 - y25_47 - y51_59 - y32_55 - y3_28 - y17_48 - y47_61 - y9_44 - y5_55 - y28_57 - y29_31 - y9_62 - y21_27 - y6_38 - y21_45 - y21_54 - y10_17 - y2_13 - y39_62 - y25_33 - y2_40 - y3_5 - y25_42 - y3_14 - y32_50 - y22_27 - y24_46 - y32_59 - y1_53 - y35_55 - y16_51 - y36_38 - y28_34 - y17_43 - y36_56 - y17_52 - y6_15 - y28_61 - y6_24 - y9_57 - y50_58 - y29_44 - y21_40 - y10_12 - y10_21 - y39_57 - y2_17 - y54_55 - y20_62 - y12_58 - y2_35 - y32_45 - y51_58 - y14_18 - y1_48 - y35_50 - y1_57 - y17_29 - y36_42 - y17_38 - y17_47 - y6_19 - y6_46 - y39_52 - y54_59 - y12_53 - y13_27 - y4_58 - y35_36 - y24_45 - y16_41 - y13_54 - y46_60 - y5_40 - y17_42 - y5_49 - y6_14 - y58_61 - y50_57 - y8_51 - y42_53 - y20_34 - y10_11 - y12_39 - y23_39 - y20_61 - y16_18 - y13_31 - y16_27 - y35_40 - y1_47 - y13_49 - y16_54 - y46_55 - y49_51 - y5_26 - y9_24 - y27_50 - y50_52 - y30_46 - y27_59 - y8_55 - y0_60 - y20_38 - y39_51 - y23_34 - y20_47 - y39_60 - y12_43 - y12_52 - y1_24 - y24_26 - y32_39 - y16_22 - y53_62 - y24_44 - y35_44 - y16_40 - y1_51 - y16_49 - y9_10 - y17_23 - y46_59 - y9_19 - y15_53 - y5_30 - y26_53 - y9_28 - y5_39 - y7_58 - y19_32 - y42_43 - y19_50 - y11_46 - y30_59 - y12_20 - y20_33 - y31_51 - y4_34 - y1_10 - y4_52 - y34_53 - y1_28 - y13_30 - y24_30 - y34_62 - y45_62 - y1_37 - y5_25 - y7_44 - y15_57 - y26_57 - y38_59 - y7_53 - y18_53 - y27_31 - y7_62 - y8_27 - y18_62 - y8_45 - y42_47 - y12_15 - y41_60 - y52_60 - y12_33 - y23_33 - y34_39 - y34_48 - y53_61 - y56_57 - y16_30 - y3_60 - y26_34 - y26_43 - y38_45 - y7_39 - y18_39 - y38_54 - y7_57 - y8_22 - y18_57 - y0_18 - y27_44 - y11_27 - y27_53 - y11_45 - y20_23 - y41_55 - y31_32 - y23_28 - y22_41 - y45_52 - y34_61 - y56_61 - y15_29 - y26_29 - y18_25 - y18_34 - y15_47 - y26_47 - y38_49 - y11_13 - y7_61 - y18_61 - y30_44 - y11_40 - y12_14 - y10_53 - y33_55 - y44_55 - y25_60 - y3_41 - y37_43 - y34_56 - y3_59 - y18_20 - y7_29 - y15_42 - y7_38 - y18_38 - y15_51 - y8_21 - y11_17 - y19_30 - y0_26 - y29_62 - y41_54 - y4_14 - y44_50 - y10_57 - y44_59 - y25_55 - y2_62 - y14_27 - y3_36 - y22_49 - y34_51 - y45_51 - y37_47 - y7_15 - y15_28 - y47_60 - y26_37 - y7_33 - y18_33 - y18_42 - y48_52 - y21_44 - y6_55 - y21_53 - y11_30 - y10_34 - y33_36 - y2_39 - y25_41 - y33_54 - y51_62 - y14_31 - y3_40 - y14_49 - y7_10 - y55_59 - y18_19 - y26_32 - y28_51 - y8_11 - y40_43 - y48_56 - y21_39 - y11_16 - y40_52 - y10_20 - y10_29 - y2_34 - y10_47 - y51_57 - y2_52 - y25_54 - y22_30 - y2_61 - y14_26 - y22_39 - y3_35 - y3_44 - y14_44 - y15_18 - y36_50 - y17_46 - y7_23 - y18_23 - y59_61 - y28_55 - y0_2 - y6_36 - y29_38 - y29_47 - y40_47 - y6_54 - y29_56 - y54_58 - y33_44 - y10_51 - y3_12 - y32_48 - y2_56 - y24_53 - y35_53 - y14_30 - y24_62 - y35_62 - y7_9 - y28_41 - y47_54 - y28_59 - y6_31 - y6_40 - y29_42 - y6_49 - y6_58 - y2_6 - y2_15 - y10_28 - y20_60 - y31_60 - y10_37 - y2_33 - y32_43 - y24_39 - y3_16 - y14_16 - y3_25 - y24_57 - y35_57 - y17_27 - y17_36 - y28_36 - y17_45 - y47_58 - y17_54 - y6_17 - y28_54 - y6_35 - y10_14 - y2_10 - y31_55 - y2_28 - y12_60 - y13_25 - y2_37 - y23_60 - y3_11 - y13_43 - y24_43 - y35_43 - y16_48 - y5_38 - y9_36 - y5_47 - y28_49 - y58_59 - y21_28 - y6_39 - y8_58 - y42_60 - y12_46 - y54_61 - y12_55 - y13_20 - y23_55 - y32_33 - y4_60 - y16_25 - y32_42 - y1_36 - y51_55 - y32_51 - y43_51 - y1_45 - y24_47 - y35_56 - y46_53 - y16_61 - y17_26 - y5_33 - y9_31 - y28_44 - y6_7 - y6_25 - y21_23 - y27_57 - y19_53 - y30_53 - y0_49 - y20_27 - y11_58 - y2_18 - y4_37 - y20_54 - y23_50 - y23_59 - y32_37 - y13_33 - y16_29 - y24_42 - y35_42 - y46_48 - y38_44 - y28_30 - y9_26 - y19_48 - y8_57 - y19_57 - y30_57 - y2_4 - y20_40 - y39_53 - y12_36 - y4_32 - y23_45 - y20_58 - y12_54 - y13_28 - y16_24 - y24_37 - y16_33 - y16_42 - y46_52 - y15_46 - y27_29 - y7_60 - y27_47 - y42_45 - y30_61 - y0_57 - y12_22 - y12_31 - y23_31 - y1_3 - y16_19 - y37_51 - y16_28 - y46_47 - y9_16 - y38_52 - y18_46 - y26_59 - y7_55 - y8_20 - y18_55 - y19_20 - y27_42 - y19_38 - y30_38 - y8_47 - y42_49 - y0_43 - y20_21 - y12_17 - y41_62 - y52_62 - y33_58 - y12_35 - y4_31 - y1_7 - y4_40 - y34_41 - y13_18 - y22_48 - y45_59 - y3_62 - y26_27 - y18_32 - y7_41 - y18_41 - y49_56 - y18_50 - y27_28 - y7_59 - y8_24 - y48_60 - y27_46 - y30_42 - y0_38 - y0_47 - y11_47 - y20_25 - y12_21 - y41_57 - y52_57 - y33_53 - y23_30 - y1_2 - y25_58 - y4_35 - y1_11 - y34_45 - y3_39 - y14_39 - y45_54 - y37_59 - y26_31 - y18_27 - y38_42 - y15_49 - y7_45 - y26_58 - y7_54 - y48_55 - y0_15 - y19_28 - y29_60 - y19_37 - y21_56 - y30_37 - y0_33 - y0_42 - y11_42 - y12_16 - y41_52 - y10_55 - y44_57 - y22_29 - y1_6 - y34_49 - y14_43 - y45_58 - y3_52 - y7_22 - y15_35 - y18_31 - y0_1 - y29_46 - y19_23 - y0_19 - y6_53 - y11_19 - y29_55 - y41_47 - y33_43 - y25_39 - y2_46 - y25_48 - y10_59 - y33_61 - y44_61 - y3_20 - y3_47 - y7_8
 Subject to
C1: x0+x1-y0_1 <=1 
C2: x0+x2-y0_2 <=1 
C3: x0+x3 <=1 
C4: x0+x5 <=1 
C5: x0+x7 <=1 
C6: x0+x8 <=1 
C7: x0+x10 <=1 
C8: x0+x13 <=1 
C9: x0+x14 <=1 
C10: x0+x15-y0_15 <=1 
C11: x0+x18-y0_18 <=1 
C12: x0+x19-y0_19 <=1 
C13: x0+x21 <=1 
C14: x0+x26-y0_26 <=1 
C15: x0+x32 <=1 
C16: x0+x33-y0_33 <=1 
C17: x0+x34 <=1 
C18: x0+x35 <=1 
C19: x0+x37 <=1 
C20: x0+x38-y0_38 <=1 
C21: x0+x41 <=1 
C22: x0+x42-y0_42 <=1 
C23: x0+x43-y0_43 <=1 
C24: x0+x44 <=1 
C25: x0+x47-y0_47 <=1 
C26: x0+x48 <=1 
C27: x0+x49-y0_49 <=1 
C28: x0+x52 <=1 
C29: x0+x54 <=1 
C30: x0+x56 <=1 
C31: x0+x57-y0_57 <=1 
C32: x0+x60-y0_60 <=1 
C33: x0+x62 <=1 
C34: x1+x2-y1_2 <=1 
C35: x1+x3-y1_3 <=1 
C36: x1+x4 <=1 
C37: x1+x6-y1_6 <=1 
C38: x1+x7-y1_7 <=1 
C39: x1+x8 <=1 
C40: x1+x9 <=1 
C41: x1+x10-y1_10 <=1 
C42: x1+x11-y1_11 <=1 
C43: x1+x12 <=1 
C44: x1+x13 <=1 
C45: x1+x15 <=1 
C46: x1+x16 <=1 
C47: x1+x18 <=1 
C48: x1+x20 <=1 
C49: x1+x21 <=1 
C50: x1+x24-y1_24 <=1 
C51: x1+x26 <=1 
C52: x1+x28-y1_28 <=1 
C53: x1+x30 <=1 
C54: x1+x31 <=1 
C55: x1+x33 <=1 
C56: x1+x36-y1_36 <=1 
C57: x1+x37-y1_37 <=1 
C58: x1+x39 <=1 
C59: x1+x45-y1_45 <=1 
C60: x1+x46 <=1 
C61: x1+x47-y1_47 <=1 
C62: x1+x48-y1_48 <=1 
C63: x1+x51-y1_51 <=1 
C64: x1+x52 <=1 
C65: x1+x53-y1_53 <=1 
C66: x1+x54 <=1 
C67: x1+x57-y1_57 <=1 
C68: x1+x61 <=1 
C69: x1+x62 <=1 
C70: x2+x4-y2_4 <=1 
C71: x2+x6-y2_6 <=1 
C72: x2+x10-y2_10 <=1 
C73: x2+x13-y2_13 <=1 
C74: x2+x15-y2_15 <=1 
C75: x2+x17-y2_17 <=1 
C76: x2+x18-y2_18 <=1 
C77: x2+x20 <=1 
C78: x2+x21 <=1 
C79: x2+x27-y2_27 <=1 
C80: x2+x28-y2_28 <=1 
C81: x2+x30 <=1 
C82: x2+x31 <=1 
C83: x2+x32 <=1 
C84: x2+x33-y2_33 <=1 
C85: x2+x34-y2_34 <=1 
C86: x2+x35-y2_35 <=1 
C87: x2+x37-y2_37 <=1 
C88: x2+x39-y2_39 <=1 
C89: x2+x40-y2_40 <=1 
C90: x2+x41-y2_41 <=1 
C91: x2+x43 <=1 
C92: x2+x45 <=1 
C93: x2+x46-y2_46 <=1 
C94: x2+x47 <=1 
C95: x2+x49 <=1 
C96: x2+x50-y2_50 <=1 
C97: x2+x52-y2_52 <=1 
C98: x2+x53 <=1 
C99: x2+x54 <=1 
C100: x2+x55 <=1 
C101: x2+x56-y2_56 <=1 
C102: x2+x57 <=1 
C103: x2+x59-y2_59 <=1 
C104: x2+x61-y2_61 <=1 
C105: x2+x62-y2_62 <=1 
C106: x3+x4 <=1 
C107: x3+x5-y3_5 <=1 
C108: x3+x6 <=1 
C109: x3+x7 <=1 
C110: x3+x9 <=1 
C111: x3+x11-y3_11 <=1 
C112: x3+x12-y3_12 <=1 
C113: x3+x13 <=1 
C114: x3+x14-y3_14 <=1 
C115: x3+x15-y3_15 <=1 
C116: x3+x16-y3_16 <=1 
C117: x3+x20-y3_20 <=1 
C118: x3+x21 <=1 
C119: x3+x22 <=1 
C120: x3+x24-y3_24 <=1 
C121: x3+x25-y3_25 <=1 
C122: x3+x26 <=1 
C123: x3+x27 <=1 
C124: x3+x28-y3_28 <=1 
C125: x3+x30 <=1 
C126: x3+x31 <=1 
C127: x3+x32 <=1 
C128: x3+x35-y3_35 <=1 
C129: x3+x36-y3_36 <=1 
C130: x3+x39-y3_39 <=1 
C131: x3+x40-y3_40 <=1 
C132: x3+x41-y3_41 <=1 
C133: x3+x42-y3_42 <=1 
C134: x3+x44-y3_44 <=1 
C135: x3+x47-y3_47 <=1 
C136: x3+x48 <=1 
C137: x3+x52-y3_52 <=1 
C138: x3+x54 <=1 
C139: x3+x57 <=1 
C140: x3+x59-y3_59 <=1 
C141: x3+x60-y3_60 <=1 
C142: x3+x61 <=1 
C143: x3+x62-y3_62 <=1 
C144: x4+x7 <=1 
C145: x4+x10 <=1 
C146: x4+x11 <=1 
C147: x4+x13 <=1 
C148: x4+x14-y4_14 <=1 
C149: x4+x15 <=1 
C150: x4+x16 <=1 
C151: x4+x17 <=1 
C152: x4+x18 <=1 
C153: x4+x22 <=1 
C154: x4+x27 <=1 
C155: x4+x28 <=1 
C156: x4+x31-y4_31 <=1 
C157: x4+x32-y4_32 <=1 
C158: x4+x34-y4_34 <=1 
C159: x4+x35-y4_35 <=1 
C160: x4+x37-y4_37 <=1 
C161: x4+x38 <=1 
C162: x4+x40-y4_40 <=1 
C163: x4+x41 <=1 
C164: x4+x43 <=1 
C165: x4+x44 <=1 
C166: x4+x45 <=1 
C167: x4+x46 <=1 
C168: x4+x50 <=1 
C169: x4+x52-y4_52 <=1 
C170: x4+x53 <=1 
C171: x4+x55 <=1 
C172: x4+x56 <=1 
C173: x4+x57 <=1 
C174: x4+x58-y4_58 <=1 
C175: x4+x59 <=1 
C176: x4+x60-y4_60 <=1 
C177: x5+x6 <=1 
C178: x5+x7 <=1 
C179: x5+x8 <=1 
C180: x5+x13 <=1 
C181: x5+x17 <=1 
C182: x5+x19 <=1 
C183: x5+x20 <=1 
C184: x5+x22 <=1 
C185: x5+x23 <=1 
C186: x5+x25-y5_25 <=1 
C187: x5+x26-y5_26 <=1 
C188: x5+x27 <=1 
C189: x5+x29 <=1 
C190: x5+x30-y5_30 <=1 
C191: x5+x32 <=1 
C192: x5+x33-y5_33 <=1 
C193: x5+x36 <=1 
C194: x5+x38-y5_38 <=1 
C195: x5+x39-y5_39 <=1 
C196: x5+x40-y5_40 <=1 
C197: x5+x42 <=1 
C198: x5+x44 <=1 
C199: x5+x46 <=1 
C200: x5+x47-y5_47 <=1 
C201: x5+x49-y5_49 <=1 
C202: x5+x52 <=1 
C203: x5+x53 <=1 
C204: x5+x55-y5_55 <=1 
C205: x5+x57 <=1 
C206: x5+x60 <=1 
C207: x6+x7-y6_7 <=1 
C208: x6+x8 <=1 
C209: x6+x14-y6_14 <=1 
C210: x6+x15-y6_15 <=1 
C211: x6+x16 <=1 
C212: x6+x17-y6_17 <=1 
C213: x6+x19-y6_19 <=1 
C214: x6+x21 <=1 
C215: x6+x23 <=1 
C216: x6+x24-y6_24 <=1 
C217: x6+x25-y6_25 <=1 
C218: x6+x26 <=1 
C219: x6+x27 <=1 
C220: x6+x29 <=1 
C221: x6+x30 <=1 
C222: x6+x31-y6_31 <=1 
C223: x6+x33 <=1 
C224: x6+x34-y6_34 <=1 
C225: x6+x35-y6_35 <=1 
C226: x6+x36-y6_36 <=1 
C227: x6+x38-y6_38 <=1 
C228: x6+x39-y6_39 <=1 
C229: x6+x40-y6_40 <=1 
C230: x6+x42 <=1 
C231: x6+x44 <=1 
C232: x6+x46-y6_46 <=1 
C233: x6+x48 <=1 
C234: x6+x49-y6_49 <=1 
C235: x6+x52 <=1 
C236: x6+x53-y6_53 <=1 
C237: x6+x54-y6_54 <=1 
C238: x6+x55-y6_55 <=1 
C239: x6+x57-y6_57 <=1 
C240: x6+x58-y6_58 <=1 
C241: x6+x60 <=1 
C242: x6+x61-y6_61 <=1 
C243: x7+x8-y7_8 <=1 
C244: x7+x9-y7_9 <=1 
C245: x7+x10-y7_10 <=1 
C246: x7+x12-y7_12 <=1 
C247: x7+x14 <=1 
C248: x7+x15-y7_15 <=1 
C249: x7+x17 <=1 
C250: x7+x20 <=1 
C251: x7+x21 <=1 
C252: x7+x22-y7_22 <=1 
C253: x7+x23-y7_23 <=1 
C254: x7+x24 <=1 
C255: x7+x26-y7_26 <=1 
C256: x7+x28 <=1 
C257: x7+x29-y7_29 <=1 
C258: x7+x30-y7_30 <=1 
C259: x7+x32 <=1 
C260: x7+x33-y7_33 <=1 
C261: x7+x35 <=1 
C262: x7+x36 <=1 
C263: x7+x37 <=1 
C264: x7+x38-y7_38 <=1 
C265: x7+x39-y7_39 <=1 
C266: x7+x40 <=1 
C267: x7+x41-y7_41 <=1 
C268: x7+x42 <=1 
C269: x7+x43 <=1 
C270: x7+x44-y7_44 <=1 
C271: x7+x45-y7_45 <=1 
C272: x7+x46 <=1 
C273: x7+x50 <=1 
C274: x7+x51 <=1 
C275: x7+x53-y7_53 <=1 
C276: x7+x54-y7_54 <=1 
C277: x7+x55-y7_55 <=1 
C278: x7+x57-y7_57 <=1 
C279: x7+x58-y7_58 <=1 
C280: x7+x59-y7_59 <=1 
C281: x7+x60-y7_60 <=1 
C282: x7+x61-y7_61 <=1 
C283: x7+x62-y7_62 <=1 
C284: x8+x9-y8_9 <=1 
C285: x8+x11-y8_11 <=1 
C286: x8+x15 <=1 
C287: x8+x16 <=1 
C288: x8+x18-y8_18 <=1 
C289: x8+x20-y8_20 <=1 
C290: x8+x21-y8_21 <=1 
C291: x8+x22-y8_22 <=1 
C292: x8+x24-y8_24 <=1 
C293: x8+x27-y8_27 <=1 
C294: x8+x30 <=1 
C295: x8+x31 <=1 
C296: x8+x32 <=1 
C297: x8+x36 <=1 
C298: x8+x38 <=1 
C299: x8+x44 <=1 
C300: x8+x45-y8_45 <=1 
C301: x8+x47-y8_47 <=1 
C302: x8+x48 <=1 
C303: x8+x49 <=1 
C304: x8+x50 <=1 
C305: x8+x51-y8_51 <=1 
C306: x8+x53 <=1 
C307: x8+x54 <=1 
C308: x8+x55-y8_55 <=1 
C309: x8+x57-y8_57 <=1 
C310: x8+x58-y8_58 <=1 
C311: x8+x59 <=1 
C312: x8+x60 <=1 
C313: x8+x61 <=1 
C314: x8+x62 <=1 
C315: x9+x10-y9_10 <=1 
C316: x9+x11 <=1 
C317: x9+x13 <=1 
C318: x9+x14 <=1 
C319: x9+x15 <=1 
C320: x9+x16-y9_16 <=1 
C321: x9+x17 <=1 
C322: x9+x19-y9_19 <=1 
C323: x9+x24-y9_24 <=1 
C324: x9+x26-y9_26 <=1 
C325: x9+x27 <=1 
C326: x9+x28-y9_28 <=1 
C327: x9+x31-y9_31 <=1 
C328: x9+x35 <=1 
C329: x9+x36-y9_36 <=1 
C330: x9+x37 <=1 
C331: x9+x38 <=1 
C332: x9+x40 <=1 
C333: x9+x43 <=1 
C334: x9+x44-y9_44 <=1 
C335: x9+x46 <=1 
C336: x9+x54 <=1 
C337: x9+x55 <=1 
C338: x9+x56 <=1 
C339: x9+x57-y9_57 <=1 
C340: x9+x58 <=1 
C341: x9+x59 <=1 
C342: x9+x62-y9_62 <=1 
C343: x10+x11-y10_11 <=1 
C344: x10+x12-y10_12 <=1 
C345: x10+x14-y10_14 <=1 
C346: x10+x15 <=1 
C347: x10+x17-y10_17 <=1 
C348: x10+x18 <=1 
C349: x10+x19 <=1 
C350: x10+x20-y10_20 <=1 
C351: x10+x21-y10_21 <=1 
C352: x10+x24 <=1 
C353: x10+x25 <=1 
C354: x10+x26 <=1 
C355: x10+x28-y10_28 <=1 
C356: x10+x29-y10_29 <=1 
C357: x10+x32 <=1 
C358: x10+x34-y10_34 <=1 
C359: x10+x36-y10_36 <=1 
C360: x10+x37-y10_37 <=1 
C361: x10+x39 <=1 
C362: x10+x41 <=1 
C363: x10+x42 <=1 
C364: x10+x45 <=1 
C365: x10+x46 <=1 
C366: x10+x47-y10_47 <=1 
C367: x10+x48 <=1 
C368: x10+x49 <=1 
C369: x10+x51-y10_51 <=1 
C370: x10+x52 <=1 
C371: x10+x53-y10_53 <=1 
C372: x10+x54 <=1 
C373: x10+x55-y10_55 <=1 
C374: x10+x57-y10_57 <=1 
C375: x10+x58 <=1 
C376: x10+x59-y10_59 <=1 
C377: x10+x60 <=1 
C378: x10+x61 <=1 
C379: x10+x62 <=1 
C380: x11+x12 <=1 
C381: x11+x13-y11_13 <=1 
C382: x11+x16-y11_16 <=1 
C383: x11+x17-y11_17 <=1 
C384: x11+x18 <=1 
C385: x11+x19-y11_19 <=1 
C386: x11+x22 <=1 
C387: x11+x24 <=1 
C388: x11+x27-y11_27 <=1 
C389: x11+x30-y11_30 <=1 
C390: x11+x31 <=1 
C391: x11+x33 <=1 
C392: x11+x34 <=1 
C393: x11+x36 <=1 
C394: x11+x40-y11_40 <=1 
C395: x11+x42-y11_42 <=1 
C396: x11+x45-y11_45 <=1 
C397: x11+x46-y11_46 <=1 
C398: x11+x47-y11_47 <=1 
C399: x11+x48 <=1 
C400: x11+x49 <=1 
C401: x11+x53 <=1 
C402: x11+x58-y11_58 <=1 
C403: x11+x59 <=1 
C404: x11+x60 <=1 
C405: x11+x61 <=1 
C406: x12+x14-y12_14 <=1 
C407: x12+x15-y12_15 <=1 
C408: x12+x16-y12_16 <=1 
C409: x12+x17-y12_17 <=1 
C410: x12+x20-y12_20 <=1 
C411: x12+x21-y12_21 <=1 
C412: x12+x22-y12_22 <=1 
C413: x12+x25 <=1 
C414: x12+x26 <=1 
C415: x12+x27 <=1 
C416: x12+x28 <=1 
C417: x12+x29 <=1 
C418: x12+x30 <=1 
C419: x12+x31-y12_31 <=1 
C420: x12+x32 <=1 
C421: x12+x33-y12_33 <=1 
C422: x12+x35-y12_35 <=1 
C423: x12+x36-y12_36 <=1 
C424: x12+x37 <=1 
C425: x12+x38 <=1 
C426: x12+x39-y12_39 <=1 
C427: x12+x40 <=1 
C428: x12+x43-y12_43 <=1 
C429: x12+x44 <=1 
C430: x12+x45 <=1 
C431: x12+x46-y12_46 <=1 
C432: x12+x47 <=1 
C433: x12+x48 <=1 
C434: x12+x52-y12_52 <=1 
C435: x12+x53-y12_53 <=1 
C436: x12+x54-y12_54 <=1 
C437: x12+x55-y12_55 <=1 
C438: x12+x56 <=1 
C439: x12+x57 <=1 
C440: x12+x58-y12_58 <=1 
C441: x12+x59 <=1 
C442: x12+x60-y12_60 <=1 
C443: x12+x61 <=1 
C444: x13+x16 <=1 
C445: x13+x18-y13_18 <=1 
C446: x13+x20-y13_20 <=1 
C447: x13+x22 <=1 
C448: x13+x23 <=1 
C449: x13+x25-y13_25 <=1 
C450: x13+x26 <=1 
C451: x13+x27-y13_27 <=1 
C452: x13+x28-y13_28 <=1 
C453: x13+x29 <=1 
C454: x13+x30-y13_30 <=1 
C455: x13+x31-y13_31 <=1 
C456: x13+x33-y13_33 <=1 
C457: x13+x35 <=1 
C458: x13+x39 <=1 
C459: x13+x40 <=1 
C460: x13+x42 <=1 
C461: x13+x43-y13_43 <=1 
C462: x13+x48 <=1 
C463: x13+x49-y13_49 <=1 
C464: x13+x51 <=1 
C465: x13+x54-y13_54 <=1 
C466: x13+x59 <=1 
C467: x13+x62 <=1 
C468: x14+x15 <=1 
C469: x14+x16-y14_16 <=1 
C470: x14+x17 <=1 
C471: x14+x18-y14_18 <=1 
C472: x14+x20 <=1 
C473: x14+x26-y14_26 <=1 
C474: x14+x27-y14_27 <=1 
C475: x14+x30-y14_30 <=1 
C476: x14+x31-y14_31 <=1 
C477: x14+x32 <=1 
C478: x14+x33-y14_33 <=1 
C479: x14+x36 <=1 
C480: x14+x39-y14_39 <=1 
C481: x14+x42-y14_42 <=1 
C482: x14+x43-y14_43 <=1 
C483: x14+x44-y14_44 <=1 
C484: x14+x45 <=1 
C485: x14+x48 <=1 
C486: x14+x49-y14_49 <=1 
C487: x14+x51 <=1 
C488: x14+x53 <=1 
C489: x14+x56 <=1 
C490: x15+x16-y15_16 <=1 
C491: x15+x18-y15_18 <=1 
C492: x15+x19 <=1 
C493: x15+x20 <=1 
C494: x15+x21 <=1 
C495: x15+x24 <=1 
C496: x15+x25-y15_25 <=1 
C497: x15+x26 <=1 
C498: x15+x28-y15_28 <=1 
C499: x15+x29-y15_29 <=1 
C500: x15+x30 <=1 
C501: x15+x31 <=1 
C502: x15+x35-y15_35 <=1 
C503: x15+x36 <=1 
C504: x15+x39 <=1 
C505: x15+x42-y15_42 <=1 
C506: x15+x43 <=1 
C507: x15+x46-y15_46 <=1 
C508: x15+x47-y15_47 <=1 
C509: x15+x48 <=1 
C510: x15+x49-y15_49 <=1 
C511: x15+x50 <=1 
C512: x15+x51-y15_51 <=1 
C513: x15+x52 <=1 
C514: x15+x53-y15_53 <=1 
C515: x15+x54 <=1 
C516: x15+x55 <=1 
C517: x15+x57-y15_57 <=1 
C518: x15+x59 <=1 
C519: x16+x17 <=1 
C520: x16+x18-y16_18 <=1 
C521: x16+x19-y16_19 <=1 
C522: x16+x21 <=1 
C523: x16+x22-y16_22 <=1 
C524: x16+x24-y16_24 <=1 
C525: x16+x25-y16_25 <=1 
C526: x16+x27-y16_27 <=1 
C527: x16+x28-y16_28 <=1 
C528: x16+x29-y16_29 <=1 
C529: x16+x30-y16_30 <=1 
C530: x16+x33-y16_33 <=1 
C531: x16+x35 <=1 
C532: x16+x36 <=1 
C533: x16+x39 <=1 
C534: x16+x40-y16_40 <=1 
C535: x16+x41-y16_41 <=1 
C536: x16+x42-y16_42 <=1 
C537: x16+x44 <=1 
C538: x16+x45 <=1 
C539: x16+x48-y16_48 <=1 
C540: x16+x49-y16_49 <=1 
C541: x16+x50 <=1 
C542: x16+x51-y16_51 <=1 
C543: x16+x53 <=1 
C544: x16+x54-y16_54 <=1 
C545: x16+x56 <=1 
C546: x16+x57 <=1 
C547: x16+x61-y16_61 <=1 
C548: x17+x18 <=1 
C549: x17+x20 <=1 
C550: x17+x23-y17_23 <=1 
C551: x17+x26-y17_26 <=1 
C552: x17+x27-y17_27 <=1 
C553: x17+x28 <=1 
C554: x17+x29-y17_29 <=1 
C555: x17+x30 <=1 
C556: x17+x32 <=1 
C557: x17+x36-y17_36 <=1 
C558: x17+x37 <=1 
C559: x17+x38-y17_38 <=1 
C560: x17+x40 <=1 
C561: x17+x42-y17_42 <=1 
C562: x17+x43-y17_43 <=1 
C563: x17+x44-y17_44 <=1 
C564: x17+x45-y17_45 <=1 
C565: x17+x46-y17_46 <=1 
C566: x17+x47-y17_47 <=1 
C567: x17+x48-y17_48 <=1 
C568: x17+x52-y17_52 <=1 
C569: x17+x54-y17_54 <=1 
C570: x17+x56 <=1 
C571: x17+x58-y17_58 <=1 
C572: x17+x61 <=1 
C573: x17+x62-y17_62 <=1 
C574: x18+x19-y18_19 <=1 
C575: x18+x20-y18_20 <=1 
C576: x18+x21-y18_21 <=1 
C577: x18+x23-y18_23 <=1 
C578: x18+x24 <=1 
C579: x18+x25-y18_25 <=1 
C580: x18+x26-y18_26 <=1 
C581: x18+x27-y18_27 <=1 
C582: x18+x28 <=1 
C583: x18+x31-y18_31 <=1 
C584: x18+x32-y18_32 <=1 
C585: x18+x33-y18_33 <=1 
C586: x18+x34-y18_34 <=1 
C587: x18+x37 <=1 
C588: x18+x38-y18_38 <=1 
C589: x18+x39-y18_39 <=1 
C590: x18+x40 <=1 
C591: x18+x41-y18_41 <=1 
C592: x18+x42-y18_42 <=1 
C593: x18+x44 <=1 
C594: x18+x45 <=1 
C595: x18+x46-y18_46 <=1 
C596: x18+x50-y18_50 <=1 
C597: x18+x53-y18_53 <=1 
C598: x18+x54 <=1 
C599: x18+x55-y18_55 <=1 
C600: x18+x56 <=1 
C601: x18+x57-y18_57 <=1 
C602: x18+x58 <=1 
C603: x18+x59 <=1 
C604: x18+x60 <=1 
C605: x18+x61-y18_61 <=1 
C606: x18+x62-y18_62 <=1 
C607: x19+x20-y19_20 <=1 
C608: x19+x23-y19_23 <=1 
C609: x19+x24 <=1 
C610: x19+x28-y19_28 <=1 
C611: x19+x30-y19_30 <=1 
C612: x19+x32-y19_32 <=1 
C613: x19+x34 <=1 
C614: x19+x35 <=1 
C615: x19+x37-y19_37 <=1 
C616: x19+x38-y19_38 <=1 
C617: x19+x39 <=1 
C618: x19+x41 <=1 
C619: x19+x42 <=1 
C620: x19+x45 <=1 
C621: x19+x46 <=1 
C622: x19+x48-y19_48 <=1 
C623: x19+x49 <=1 
C624: x19+x50-y19_50 <=1 
C625: x19+x51 <=1 
C626: x19+x53-y19_53 <=1 
C627: x19+x57-y19_57 <=1 
C628: x19+x59 <=1 
C629: x20+x21-y20_21 <=1 
C630: x20+x23-y20_23 <=1 
C631: x20+x24 <=1 
C632: x20+x25-y20_25 <=1 
C633: x20+x26 <=1 
C634: x20+x27-y20_27 <=1 
C635: x20+x30 <=1 
C636: x20+x31 <=1 
C637: x20+x33-y20_33 <=1 
C638: x20+x34-y20_34 <=1 
C639: x20+x35 <=1 
C640: x20+x36 <=1 
C641: x20+x38-y20_38 <=1 
C642: x20+x39 <=1 
C643: x20+x40-y20_40 <=1 
C644: x20+x44 <=1 
C645: x20+x45 <=1 
C646: x20+x46 <=1 
C647: x20+x47-y20_47 <=1 
C648: x20+x54-y20_54 <=1 
C649: x20+x58-y20_58 <=1 
C650: x20+x60-y20_60 <=1 
C651: x20+x61-y20_61 <=1 
C652: x20+x62-y20_62 <=1 
C653: x21+x22 <=1 
C654: x21+x23-y21_23 <=1 
C655: x21+x24 <=1 
C656: x21+x27-y21_27 <=1 
C657: x21+x28-y21_28 <=1 
C658: x21+x30 <=1 
C659: x21+x31 <=1 
C660: x21+x34 <=1 
C661: x21+x35 <=1 
C662: x21+x36 <=1 
C663: x21+x39-y21_39 <=1 
C664: x21+x40-y21_40 <=1 
C665: x21+x41-y21_41 <=1 
C666: x21+x43 <=1 
C667: x21+x44-y21_44 <=1 
C668: x21+x45-y21_45 <=1 
C669: x21+x47 <=1 
C670: x21+x48 <=1 
C671: x21+x52 <=1 
C672: x21+x53-y21_53 <=1 
C673: x21+x54-y21_54 <=1 
C674: x21+x55-y21_55 <=1 
C675: x21+x56-y21_56 <=1 
C676: x21+x57 <=1 
C677: x21+x58 <=1 
C678: x21+x59 <=1 
C679: x21+x60 <=1 
C680: x22+x27-y22_27 <=1 
C681: x22+x28 <=1 
C682: x22+x29-y22_29 <=1 
C683: x22+x30-y22_30 <=1 
C684: x22+x32 <=1 
C685: x22+x33 <=1 
C686: x22+x34 <=1 
C687: x22+x39-y22_39 <=1 
C688: x22+x41-y22_41 <=1 
C689: x22+x42 <=1 
C690: x22+x43 <=1 
C691: x22+x45 <=1 
C692: x22+x46-y22_46 <=1 
C693: x22+x47 <=1 
C694: x22+x48-y22_48 <=1 
C695: x22+x49-y22_49 <=1 
C696: x22+x50 <=1 
C697: x22+x52 <=1 
C698: x22+x56 <=1 
C699: x22+x57 <=1 
C700: x23+x25 <=1 
C701: x23+x26 <=1 
C702: x23+x28-y23_28 <=1 
C703: x23+x30-y23_30 <=1 
C704: x23+x31-y23_31 <=1 
C705: x23+x33-y23_33 <=1 
C706: x23+x34-y23_34 <=1 
C707: x23+x36 <=1 
C708: x23+x37 <=1 
C709: x23+x39-y23_39 <=1 
C710: x23+x40 <=1 
C711: x23+x42 <=1 
C712: x23+x43 <=1 
C713: x23+x44 <=1 
C714: x23+x45-y23_45 <=1 
C715: x23+x47 <=1 
C716: x23+x50-y23_50 <=1 
C717: x23+x51 <=1 
C718: x23+x53 <=1 
C719: x23+x55-y23_55 <=1 
C720: x23+x57 <=1 
C721: x23+x59-y23_59 <=1 
C722: x23+x60-y23_60 <=1 
C723: x23+x62 <=1 
C724: x24+x25 <=1 
C725: x24+x26-y24_26 <=1 
C726: x24+x29 <=1 
C727: x24+x30-y24_30 <=1 
C728: x24+x32 <=1 
C729: x24+x33 <=1 
C730: x24+x36 <=1 
C731: x24+x37-y24_37 <=1 
C732: x24+x38 <=1 
C733: x24+x39-y24_39 <=1 
C734: x24+x41 <=1 
C735: x24+x42-y24_42 <=1 
C736: x24+x43-y24_43 <=1 
C737: x24+x44-y24_44 <=1 
C738: x24+x45-y24_45 <=1 
C739: x24+x46-y24_46 <=1 
C740: x24+x47-y24_47 <=1 
C741: x24+x50 <=1 
C742: x24+x51 <=1 
C743: x24+x52 <=1 
C744: x24+x53-y24_53 <=1 
C745: x24+x54 <=1 
C746: x24+x55 <=1 
C747: x24+x56 <=1 
C748: x24+x57-y24_57 <=1 
C749: x24+x58 <=1 
C750: x24+x60 <=1 
C751: x24+x62-y24_62 <=1 
C752: x25+x28 <=1 
C753: x25+x29-y25_29 <=1 
C754: x25+x30 <=1 
C755: x25+x31 <=1 
C756: x25+x32 <=1 
C757: x25+x33-y25_33 <=1 
C758: x25+x34 <=1 
C759: x25+x36 <=1 
C760: x25+x38-y25_38 <=1 
C761: x25+x39-y25_39 <=1 
C762: x25+x41-y25_41 <=1 
C763: x25+x42-y25_42 <=1 
C764: x25+x43-y25_43 <=1 
C765: x25+x47-y25_47 <=1 
C766: x25+x48-y25_48 <=1 
C767: x25+x49 <=1 
C768: x25+x50 <=1 
C769: x25+x53 <=1 
C770: x25+x54-y25_54 <=1 
C771: x25+x55-y25_55 <=1 
C772: x25+x57 <=1 
C773: x25+x58-y25_58 <=1 
C774: x25+x60-y25_60 <=1 
C775: x25+x61-y25_61 <=1 
C776: x25+x62 <=1 
C777: x26+x27-y26_27 <=1 
C778: x26+x29-y26_29 <=1 
C779: x26+x31-y26_31 <=1 
C780: x26+x32-y26_32 <=1 
C781: x26+x34-y26_34 <=1 
C782: x26+x37-y26_37 <=1 
C783: x26+x40 <=1 
C784: x26+x42 <=1 
C785: x26+x43-y26_43 <=1 
C786: x26+x45 <=1 
C787: x26+x46 <=1 
C788: x26+x47-y26_47 <=1 
C789: x26+x49 <=1 
C790: x26+x52 <=1 
C791: x26+x53-y26_53 <=1 
C792: x26+x54 <=1 
C793: x26+x57-y26_57 <=1 
C794: x26+x58-y26_58 <=1 
C795: x26+x59-y26_59 <=1 
C796: x26+x60 <=1 
C797: x26+x61 <=1 
C798: x26+x62 <=1 
C799: x27+x28-y27_28 <=1 
C800: x27+x29-y27_29 <=1 
C801: x27+x31-y27_31 <=1 
C802: x27+x33 <=1 
C803: x27+x36 <=1 
C804: x27+x37 <=1 
C805: x27+x38 <=1 
C806: x27+x42-y27_42 <=1 
C807: x27+x43 <=1 
C808: x27+x44-y27_44 <=1 
C809: x27+x46-y27_46 <=1 
C810: x27+x47-y27_47 <=1 
C811: x27+x48 <=1 
C812: x27+x50-y27_50 <=1 
C813: x27+x52 <=1 
C814: x27+x53-y27_53 <=1 
C815: x27+x54 <=1 
C816: x27+x56 <=1 
C817: x27+x57-y27_57 <=1 
C818: x27+x59-y27_59 <=1 
C819: x27+x60 <=1 
C820: x27+x61 <=1 
C821: x28+x29 <=1 
C822: x28+x30-y28_30 <=1 
C823: x28+x31 <=1 
C824: x28+x32 <=1 
C825: x28+x33 <=1 
C826: x28+x34-y28_34 <=1 
C827: x28+x36-y28_36 <=1 
C828: x28+x37 <=1 
C829: x28+x38 <=1 
C830: x28+x39 <=1 
C831: x28+x41-y28_41 <=1 
C832: x28+x43 <=1 
C833: x28+x44-y28_44 <=1 
C834: x28+x46 <=1 
C835: x28+x49-y28_49 <=1 
C836: x28+x51-y28_51 <=1 
C837: x28+x53-y28_53 <=1 
C838: x28+x54-y28_54 <=1 
C839: x28+x55-y28_55 <=1 
C840: x28+x56 <=1 
C841: x28+x57-y28_57 <=1 
C842: x28+x58-y28_58 <=1 
C843: x28+x59-y28_59 <=1 
C844: x28+x61-y28_61 <=1 
C845: x29+x30 <=1 
C846: x29+x31-y29_31 <=1 
C847: x29+x36-y29_36 <=1 
C848: x29+x37 <=1 
C849: x29+x38-y29_38 <=1 
C850: x29+x42-y29_42 <=1 
C851: x29+x43 <=1 
C852: x29+x44-y29_44 <=1 
C853: x29+x45 <=1 
C854: x29+x46-y29_46 <=1 
C855: x29+x47-y29_47 <=1 
C856: x29+x50 <=1 
C857: x29+x54-y29_54 <=1 
C858: x29+x55-y29_55 <=1 
C859: x29+x56-y29_56 <=1 
C860: x29+x57 <=1 
C861: x29+x58 <=1 
C862: x29+x59-y29_59 <=1 
C863: x29+x60-y29_60 <=1 
C864: x29+x61 <=1 
C865: x29+x62-y29_62 <=1 
C866: x30+x31 <=1 
C867: x30+x35 <=1 
C868: x30+x37-y30_37 <=1 
C869: x30+x38-y30_38 <=1 
C870: x30+x40 <=1 
C871: x30+x42-y30_42 <=1 
C872: x30+x43 <=1 
C873: x30+x44-y30_44 <=1 
C874: x30+x46-y30_46 <=1 
C875: x30+x53-y30_53 <=1 
C876: x30+x54 <=1 
C877: x30+x55 <=1 
C878: x30+x56 <=1 
C879: x30+x57-y30_57 <=1 
C880: x30+x59-y30_59 <=1 
C881: x30+x60 <=1 
C882: x30+x61-y30_61 <=1 
C883: x31+x32-y31_32 <=1 
C884: x31+x36 <=1 
C885: x31+x39 <=1 
C886: x31+x42 <=1 
C887: x31+x43 <=1 
C888: x31+x47 <=1 
C889: x31+x48 <=1 
C890: x31+x50 <=1 
C891: x31+x51-y31_51 <=1 
C892: x31+x53 <=1 
C893: x31+x55-y31_55 <=1 
C894: x31+x56 <=1 
C895: x31+x59 <=1 
C896: x31+x60-y31_60 <=1 
C897: x31+x61 <=1 
C898: x31+x62 <=1 
C899: x32+x33-y32_33 <=1 
C900: x32+x37-y32_37 <=1 
C901: x32+x39-y32_39 <=1 
C902: x32+x41 <=1 
C903: x32+x42-y32_42 <=1 
C904: x32+x43-y32_43 <=1 
C905: x32+x44 <=1 
C906: x32+x45-y32_45 <=1 
C907: x32+x48-y32_48 <=1 
C908: x32+x50-y32_50 <=1 
C909: x32+x51-y32_51 <=1 
C910: x32+x52 <=1 
C911: x32+x54 <=1 
C912: x32+x55-y32_55 <=1 
C913: x32+x56 <=1 
C914: x32+x59-y32_59 <=1 
C915: x32+x60-y32_60 <=1 
C916: x32+x61 <=1 
C917: x33+x36-y33_36 <=1 
C918: x33+x39 <=1 
C919: x33+x42-y33_42 <=1 
C920: x33+x43-y33_43 <=1 
C921: x33+x44-y33_44 <=1 
C922: x33+x46 <=1 
C923: x33+x47 <=1 
C924: x33+x48 <=1 
C925: x33+x50 <=1 
C926: x33+x53-y33_53 <=1 
C927: x33+x54-y33_54 <=1 
C928: x33+x55-y33_55 <=1 
C929: x33+x56-y33_56 <=1 
C930: x33+x57 <=1 
C931: x33+x58-y33_58 <=1 
C932: x33+x59 <=1 
C933: x33+x60 <=1 
C934: x33+x61-y33_61 <=1 
C935: x34+x35 <=1 
C936: x34+x37 <=1 
C937: x34+x38 <=1 
C938: x34+x39-y34_39 <=1 
C939: x34+x40 <=1 
C940: x34+x41-y34_41 <=1 
C941: x34+x42 <=1 
C942: x34+x45-y34_45 <=1 
C943: x34+x48-y34_48 <=1 
C944: x34+x49-y34_49 <=1 
C945: x34+x51-y34_51 <=1 
C946: x34+x52 <=1 
C947: x34+x53-y34_53 <=1 
C948: x34+x54 <=1 
C949: x34+x55 <=1 
C950: x34+x56-y34_56 <=1 
C951: x34+x57 <=1 
C952: x34+x61-y34_61 <=1 
C953: x34+x62-y34_62 <=1 
C954: x35+x36-y35_36 <=1 
C955: x35+x38 <=1 
C956: x35+x40-y35_40 <=1 
C957: x35+x41 <=1 
C958: x35+x42-y35_42 <=1 
C959: x35+x43-y35_43 <=1 
C960: x35+x44-y35_44 <=1 
C961: x35+x45 <=1 
C962: x35+x46 <=1 
C963: x35+x50-y35_50 <=1 
C964: x35+x52 <=1 
C965: x35+x53-y35_53 <=1 
C966: x35+x55-y35_55 <=1 
C967: x35+x56-y35_56 <=1 
C968: x35+x57-y35_57 <=1 
C969: x35+x58 <=1 
C970: x35+x62-y35_62 <=1 
C971: x36+x38-y36_38 <=1 
C972: x36+x39 <=1 
C973: x36+x40 <=1 
C974: x36+x42-y36_42 <=1 
C975: x36+x44 <=1 
C976: x36+x45 <=1 
C977: x36+x46 <=1 
C978: x36+x47 <=1 
C979: x36+x49 <=1 
C980: x36+x50-y36_50 <=1 
C981: x36+x52 <=1 
C982: x36+x53-y36_53 <=1 
C983: x36+x56-y36_56 <=1 
C984: x36+x57-y36_57 <=1 
C985: x36+x60 <=1 
C986: x36+x62 <=1 
C987: x37+x39 <=1 
C988: x37+x42 <=1 
C989: x37+x43-y37_43 <=1 
C990: x37+x44 <=1 
C991: x37+x46 <=1 
C992: x37+x47-y37_47 <=1 
C993: x37+x51-y37_51 <=1 
C994: x37+x55 <=1 
C995: x37+x57 <=1 
C996: x37+x58 <=1 
C997: x37+x59-y37_59 <=1 
C998: x38+x39 <=1 
C999: x38+x42-y38_42 <=1 
C1000: x38+x43 <=1 
C1001: x38+x44-y38_44 <=1 
C1002: x38+x45-y38_45 <=1 
C1003: x38+x49-y38_49 <=1 
C1004: x38+x52-y38_52 <=1 
C1005: x38+x53 <=1 
C1006: x38+x54-y38_54 <=1 
C1007: x38+x56 <=1 
C1008: x38+x58 <=1 
C1009: x38+x59-y38_59 <=1 
C1010: x38+x61 <=1 
C1011: x38+x62 <=1 
C1012: x39+x41 <=1 
C1013: x39+x43 <=1 
C1014: x39+x51-y39_51 <=1 
C1015: x39+x52-y39_52 <=1 
C1016: x39+x53-y39_53 <=1 
C1017: x39+x55 <=1 
C1018: x39+x56 <=1 
C1019: x39+x57-y39_57 <=1 
C1020: x39+x58 <=1 
C1021: x39+x60-y39_60 <=1 
C1022: x39+x61 <=1 
C1023: x39+x62-y39_62 <=1 
C1024: x40+x41 <=1 
C1025: x40+x43-y40_43 <=1 
C1026: x40+x44 <=1 
C1027: x40+x47-y40_47 <=1 
C1028: x40+x51 <=1 
C1029: x40+x52-y40_52 <=1 
C1030: x40+x53 <=1 
C1031: x40+x54 <=1 
C1032: x40+x62 <=1 
C1033: x41+x42 <=1 
C1034: x41+x43 <=1 
C1035: x41+x46 <=1 
C1036: x41+x47-y41_47 <=1 
C1037: x41+x50 <=1 
C1038: x41+x51 <=1 
C1039: x41+x52-y41_52 <=1 
C1040: x41+x54-y41_54 <=1 
C1041: x41+x55-y41_55 <=1 
C1042: x41+x56 <=1 
C1043: x41+x57-y41_57 <=1 
C1044: x41+x59 <=1 
C1045: x41+x60-y41_60 <=1 
C1046: x41+x61 <=1 
C1047: x41+x62-y41_62 <=1 
C1048: x42+x43-y42_43 <=1 
C1049: x42+x44 <=1 
C1050: x42+x45-y42_45 <=1 
C1051: x42+x46 <=1 
C1052: x42+x47-y42_47 <=1 
C1053: x42+x48 <=1 
C1054: x42+x49-y42_49 <=1 
C1055: x42+x50 <=1 
C1056: x42+x53-y42_53 <=1 
C1057: x42+x56 <=1 
C1058: x42+x58 <=1 
C1059: x42+x60-y42_60 <=1 
C1060: x42+x62 <=1 
C1061: x43+x45 <=1 
C1062: x43+x46 <=1 
C1063: x43+x48 <=1 
C1064: x43+x50 <=1 
C1065: x43+x51-y43_51 <=1 
C1066: x43+x54 <=1 
C1067: x43+x56 <=1 
C1068: x43+x60-y43_60 <=1 
C1069: x43+x61 <=1 
C1070: x43+x62 <=1 
C1071: x44+x45 <=1 
C1072: x44+x47-y44_47 <=1 
C1073: x44+x49 <=1 
C1074: x44+x50-y44_50 <=1 
C1075: x44+x52 <=1 
C1076: x44+x53 <=1 
C1077: x44+x55-y44_55 <=1 
C1078: x44+x56 <=1 
C1079: x44+x57-y44_57 <=1 
C1080: x44+x59-y44_59 <=1 
C1081: x44+x60 <=1 
C1082: x44+x61-y44_61 <=1 
C1083: x44+x62 <=1 
C1084: x45+x50 <=1 
C1085: x45+x51-y45_51 <=1 
C1086: x45+x52-y45_52 <=1 
C1087: x45+x54-y45_54 <=1 
C1088: x45+x57 <=1 
C1089: x45+x58-y45_58 <=1 
C1090: x45+x59-y45_59 <=1 
C1091: x45+x62-y45_62 <=1 
C1092: x46+x47-y46_47 <=1 
C1093: x46+x48-y46_48 <=1 
C1094: x46+x50 <=1 
C1095: x46+x52-y46_52 <=1 
C1096: x46+x53-y46_53 <=1 
C1097: x46+x54 <=1 
C1098: x46+x55-y46_55 <=1 
C1099: x46+x57 <=1 
C1100: x46+x58 <=1 
C1101: x46+x59-y46_59 <=1 
C1102: x46+x60-y46_60 <=1 
C1103: x47+x50 <=1 
C1104: x47+x51 <=1 
C1105: x47+x54-y47_54 <=1 
C1106: x47+x57-y47_57 <=1 
C1107: x47+x58-y47_58 <=1 
C1108: x47+x60-y47_60 <=1 
C1109: x47+x61-y47_61 <=1 
C1110: x47+x62-y47_62 <=1 
C1111: x48+x49-y48_49 <=1 
C1112: x48+x52-y48_52 <=1 
C1113: x48+x55-y48_55 <=1 
C1114: x48+x56-y48_56 <=1 
C1115: x48+x57 <=1 
C1116: x48+x60-y48_60 <=1 
C1117: x48+x62 <=1 
C1118: x49+x51-y49_51 <=1 
C1119: x49+x56-y49_56 <=1 
C1120: x49+x59 <=1 
C1121: x49+x60 <=1 
C1122: x49+x61 <=1 
C1123: x49+x62 <=1 
C1124: x50+x51 <=1 
C1125: x50+x52-y50_52 <=1 
C1126: x50+x55 <=1 
C1127: x50+x57-y50_57 <=1 
C1128: x50+x58-y50_58 <=1 
C1129: x50+x59 <=1 
C1130: x50+x61 <=1 
C1131: x51+x52 <=1 
C1132: x51+x53 <=1 
C1133: x51+x55-y51_55 <=1 
C1134: x51+x57-y51_57 <=1 
C1135: x51+x58-y51_58 <=1 
C1136: x51+x59-y51_59 <=1 
C1137: x51+x62-y51_62 <=1 
C1138: x52+x53 <=1 
C1139: x52+x57-y52_57 <=1 
C1140: x52+x59 <=1 
C1141: x52+x60-y52_60 <=1 
C1142: x52+x62-y52_62 <=1 
C1143: x53+x61-y53_61 <=1 
C1144: x53+x62-y53_62 <=1 
C1145: x54+x55-y54_55 <=1 
C1146: x54+x57 <=1 
C1147: x54+x58-y54_58 <=1 
C1148: x54+x59-y54_59 <=1 
C1149: x54+x61-y54_61 <=1 
C1150: x55+x59-y55_59 <=1 
C1151: x55+x62 <=1 
C1152: x56+x57-y56_57 <=1 
C1153: x56+x60 <=1 
C1154: x56+x61-y56_61 <=1 
C1155: x56+x62 <=1 
C1156: x57+x61 <=1 
C1157: x57+x62 <=1 
C1158: x58+x59-y58_59 <=1 
C1159: x58+x61-y58_61 <=1 
C1160: x59+x60 <=1 
C1161: x59+x61-y59_61 <=1 
C1162: x60+x62 <=1 
C1163: x61+x62 <=1 

binary
x0
x1
x2
x3
x4
x5
x6
x7
x8
x9
x10
x11
x12
x13
x14
x15
x16
x17
x18
x19
x20
x21
x22
x23
x24
x25
x26
x27
x28
x29
x30
x31
x32
x33
x34
x35
x36
x37
x38
x39
x40
x41
x42
x43
x44
x45
x46
x47
x48
x49
x50
x51
x52
x53
x54
x55
x56
x57
x58
x59
x60
x61
x62
