problem_generation/data/GISP/train/er_n=63_m=1163_p=0.60_SET2_setparam=100.00_alpha=0.50_221.sol
objective value:                                 1178
x2                                                  1 	(obj:100)
x17                                                 1 	(obj:100)
x22                                                 1 	(obj:100)
x25                                                 1 	(obj:100)
x26                                                 1 	(obj:100)
x29                                                 1 	(obj:100)
x35                                                 1 	(obj:100)
x39                                                 1 	(obj:100)
x44                                                 1 	(obj:100)
x48                                                 1 	(obj:100)
x51                                                 1 	(obj:100)
x59                                                 1 	(obj:100)
y29_59                                              1 	(obj:-1)
y2_59                                               1 	(obj:-1)
y17_44                                              1 	(obj:-1)
y25_29                                              1 	(obj:-1)
y51_59                                              1 	(obj:-1)
y17_48                                              1 	(obj:-1)
y29_44                                              1 	(obj:-1)
y2_17                                               1 	(obj:-1)
y2_35                                               1 	(obj:-1)
y17_29                                              1 	(obj:-1)
y39_51                                              1 	(obj:-1)
y35_44                                              1 	(obj:-1)
y26_29                                              1 	(obj:-1)
y44_59                                              1 	(obj:-1)
y2_39                                               1 	(obj:-1)
y22_39                                              1 	(obj:-1)
y17_26                                              1 	(obj:-1)
y26_59                                              1 	(obj:-1)
y22_48                                              1 	(obj:-1)
y22_29                                              1 	(obj:-1)
y25_39                                              1 	(obj:-1)
y25_48                                              1 	(obj:-1)
